\ Model Transportation Problem with Emission Constraints
\ LP format - for model browsing. Use MPS format to capture full model detail.
Minimize
  2 x[0,0] + 2 x[0,1] + 2 x[0,2] + 2 x[0,3] + 2 x[0,4] + 2 x[0,5] + 2 x[0,6]
   + 2 x[0,7] + 2 x[0,8] + 2 x[1,0] + 2 x[1,1] + 2 x[1,2] + 2 x[1,3]
   + 2 x[1,4] + 2 x[1,5] + 2 x[1,6] + 2 x[1,7] + 2 x[1,8] + 2 x[2,0]
   + 2 x[2,1] + 2 x[2,2] + 2 x[2,3] + 2 x[2,4] + 2 x[2,5] + 2 x[2,6]
   + 2 x[2,7] + 2 x[2,8] + 2 x[3,0] + 2 x[3,1] + 2 x[3,2] + 2 x[3,3]
   + 2 x[3,4] + 2 x[3,5] + 2 x[3,6] + 2 x[3,7] + 2 x[3,8] + 2 x[4,0]
   + 2 x[4,1] + 2 x[4,2] + 2 x[4,3] + 2 x[4,4] + 2 x[4,5] + 2 x[4,6]
   + 2 x[4,7] + 2 x[4,8] + 2 x[5,0] + 2 x[5,1] + 2 x[5,2] + 2 x[5,3]
   + 2 x[5,4] + 2 x[5,5] + 2 x[5,6] + 2 x[5,7] + 2 x[5,8]
Subject To
 supply_0: x[0,0] + x[0,1] + x[0,2] + x[0,3] + x[0,4] + x[0,5] + x[0,6]
   + x[0,7] + x[0,8] <= 16.66666666666667
 supply_1: x[1,0] + x[1,1] + x[1,2] + x[1,3] + x[1,4] + x[1,5] + x[1,6]
   + x[1,7] + x[1,8] <= 16.66666666666667
 supply_2: x[2,0] + x[2,1] + x[2,2] + x[2,3] + x[2,4] + x[2,5] + x[2,6]
   + x[2,7] + x[2,8] <= 16.66666666666667
 supply_3: x[3,0] + x[3,1] + x[3,2] + x[3,3] + x[3,4] + x[3,5] + x[3,6]
   + x[3,7] + x[3,8] <= 16.66666666666667
 supply_4: x[4,0] + x[4,1] + x[4,2] + x[4,3] + x[4,4] + x[4,5] + x[4,6]
   + x[4,7] + x[4,8] <= 16.66666666666667
 supply_5: x[5,0] + x[5,1] + x[5,2] + x[5,3] + x[5,4] + x[5,5] + x[5,6]
   + x[5,7] + x[5,8] <= 16.66666666666667
 demand_0: x[0,0] + x[1,0] + x[2,0] + x[3,0] + x[4,0] + x[5,0] >= 1
 demand_1: x[0,1] + x[1,1] + x[2,1] + x[3,1] + x[4,1] + x[5,1] >= 1
 demand_2: x[0,2] + x[1,2] + x[2,2] + x[3,2] + x[4,2] + x[5,2] >= 1
 demand_3: x[0,3] + x[1,3] + x[2,3] + x[3,3] + x[4,3] + x[5,3] >= 1
 demand_4: x[0,4] + x[1,4] + x[2,4] + x[3,4] + x[4,4] + x[5,4] >= 1
 demand_5: x[0,5] + x[1,5] + x[2,5] + x[3,5] + x[4,5] + x[5,5] >= 1
 demand_6: x[0,6] + x[1,6] + x[2,6] + x[3,6] + x[4,6] + x[5,6] >= 1
 demand_7: x[0,7] + x[1,7] + x[2,7] + x[3,7] + x[4,7] + x[5,7] >= 1
 demand_8: x[0,8] + x[1,8] + x[2,8] + x[3,8] + x[4,8] + x[5,8] >= 1
 emission_0: 8.548681364794753 x[0,0] + 8.548681364794753 x[0,1]
   + 8.548681364794753 x[0,2] + 8.548681364794753 x[0,3]
   + 8.548681364794753 x[0,4] + 8.548681364794753 x[0,5]
   + 8.548681364794753 x[0,6] + 8.548681364794753 x[0,7]
   + 8.548681364794753 x[0,8] <= 1e+06
 emission_1: 3.330206934990046 x[1,0] + 3.330206934990046 x[1,1]
   + 3.330206934990046 x[1,2] + 3.330206934990046 x[1,3]
   + 3.330206934990046 x[1,4] + 3.330206934990046 x[1,5]
   + 3.330206934990046 x[1,6] + 3.330206934990046 x[1,7]
   + 3.330206934990046 x[1,8] <= 1e+06
 emission_2: 8.453240725575757 x[2,0] + 8.453240725575757 x[2,1]
   + 8.453240725575757 x[2,2] + 8.453240725575757 x[2,3]
   + 8.453240725575757 x[2,4] + 8.453240725575757 x[2,5]
   + 8.453240725575757 x[2,6] + 8.453240725575757 x[2,7]
   + 8.453240725575757 x[2,8] <= 1e+06
 emission_3: 9.756941377780883 x[3,0] + 9.756941377780883 x[3,1]
   + 9.756941377780883 x[3,2] + 9.756941377780883 x[3,3]
   + 9.756941377780883 x[3,4] + 9.756941377780883 x[3,5]
   + 9.756941377780883 x[3,6] + 9.756941377780883 x[3,7]
   + 9.756941377780883 x[3,8] <= 1e+06
 emission_4: 9.779575637478018 x[4,0] + 9.779575637478018 x[4,1]
   + 9.779575637478018 x[4,2] + 9.779575637478018 x[4,3]
   + 9.779575637478018 x[4,4] + 9.779575637478018 x[4,5]
   + 9.779575637478018 x[4,6] + 9.779575637478018 x[4,7]
   + 9.779575637478018 x[4,8] <= 1e+06
 emission_5: 7.308435636818069 x[5,0] + 7.308435636818069 x[5,1]
   + 7.308435636818069 x[5,2] + 7.308435636818069 x[5,3]
   + 7.308435636818069 x[5,4] + 7.308435636818069 x[5,5]
   + 7.308435636818069 x[5,6] + 7.308435636818069 x[5,7]
   + 7.308435636818069 x[5,8] <= 1e+06
Bounds
End
